Instance: E253-27k.dat
Class:  1
252 --- number of customers (no depot)
27 --- number of vehicles
367 --- number of items
Capacity - height - width of vehicles
  1000     40     20
Node - x - y - demand  Readytime Duetime
  0.00    0.00   0.00   0.00 0       255.00       
  1.00    3.00   1.00 300.00 168.00  175.00       
  2.00    3.00   3.00 300.00  94.00  108.00       
  3.00    1.00   3.00 300.00  84.00   96.00       
  4.00   -1.00   3.00 300.00  32.00   42.00       
  5.00   -3.00   3.00 300.00 160.00  172.00       
  6.00   -3.00   1.00 300.00 158.00  176.00       
  7.00   -3.00  -1.00 300.00  61.00   76.00       
  8.00   -3.00  -3.00 300.00 163.00  183.00       
  9.00   -1.00  -3.00 300.00  10.00   21.00       
 10.00    1.00  -3.00 300.00 183.00  196.00       
 11.00    3.00  -3.00 300.00  42.00   55.00       
 12.00    3.00  -1.00 300.00 187.00  194.00       
 13.00    5.00   1.00 180.00  88.00   93.00       
 14.00    5.00   3.00 180.00  30.00   50.00       
 15.00    5.00   5.00 180.00 154.00  168.00       
 16.00    3.00   5.00 180.00 127.00  136.00       
 17.00    1.00   5.00 180.00 183.00  201.00       
 18.00   -1.00   5.00 180.00 147.00  163.00       
 19.00   -3.00   5.00 180.00  97.00  113.00       
 20.00   -5.00   5.00 180.00 203.00  218.00       
 21.00   -5.00   3.00 180.00  80.00   95.00       
 22.00   -5.00   1.00 180.00  98.00  104.00       
 23.00   -5.00  -1.00 180.00  81.00  101.00       
 24.00   -5.00  -3.00 180.00 203.00  215.00       
 25.00   -5.00  -5.00 180.00 122.00  137.00       
 26.00   -3.00  -5.00 180.00 163.00  172.00       
 27.00   -1.00  -5.00 180.00  95.00  106.00       
 28.00    1.00  -5.00 180.00 191.00  200.00       
 29.00    3.00  -5.00 180.00  40.00   59.00       
 30.00    5.00  -5.00 180.00 113.00  133.00       
 31.00    5.00  -3.00 180.00 103.00  111.00       
 32.00    5.00  -1.00 180.00  80.00   93.00       
 33.00    7.00   1.00 128.00 169.00  178.00       
 34.00    7.00   3.00 128.00  90.00  103.00       
 35.00    7.00   5.00 128.00  96.00  110.00       
 36.00    7.00   7.00 128.00  92.00  109.00       
 37.00    5.00   7.00 128.00  64.00   83.00       
 38.00    3.00   7.00 128.00  19.00   36.00       
 39.00    1.00   7.00 128.00  63.00   68.00       
 40.00   -1.00   7.00 128.00 216.00  227.00       
 41.00   -3.00   7.00 128.00 173.00  184.00       
 42.00   -5.00   7.00 128.00 105.00  115.00       
 43.00   -7.00   7.00 128.00  50.00   56.00       
 44.00   -7.00   5.00 128.00 138.00  148.00       
 45.00   -7.00   3.00 128.00  97.00  112.00       
 46.00   -7.00   1.00 128.00 149.00  162.00       
 47.00   -7.00  -1.00 128.00 128.00  134.00       
 48.00   -7.00  -3.00 128.00 124.00  136.00       
 49.00   -7.00  -5.00 128.00 173.00  192.00       
 50.00   -7.00  -7.00 128.00 143.00  161.00       
 51.00   -5.00  -7.00 128.00 188.00  194.00       
 52.00   -3.00  -7.00 128.00  54.00   67.00       
 53.00   -1.00  -7.00 128.00 165.00  180.00       
 54.00    1.00  -7.00 128.00 192.00  209.00       
 55.00    3.00  -7.00 128.00 176.00  185.00       
 56.00    5.00  -7.00 128.00 182.00  200.00       
 57.00    7.00  -7.00 128.00  16.00   35.00       
 58.00    7.00  -5.00 128.00 120.00  134.00       
 59.00    7.00  -3.00 128.00  75.00   85.00       
 60.00    7.00  -1.00 128.00 130.00  138.00       
 61.00    9.00   1.00 100.00  24.00   33.00       
 62.00    9.00   3.00 100.00 185.00  198.00       
 63.00    9.00   5.00 100.00  42.00   50.00       
 64.00    9.00   7.00 100.00 131.00  148.00       
 65.00    9.00   9.00 100.00 203.00  215.00       
 66.00    7.00   9.00 100.00 209.00  218.00       
 67.00    5.00   9.00 100.00  93.00  100.00       
 68.00    3.00   9.00 100.00  39.00   47.00       
 69.00    1.00   9.00 100.00 205.00  212.00       
 70.00   -1.00   9.00 100.00 189.00  198.00       
 71.00   -3.00   9.00 100.00 169.00  183.00       
 72.00   -5.00   9.00 100.00  14.00   26.00       
 73.00   -7.00   9.00 100.00  55.00   72.00       
 74.00   -9.00   9.00 100.00 181.00  198.00       
 75.00   -9.00   7.00 100.00 188.00  208.00       
 76.00   -9.00   5.00 100.00  61.00   81.00       
 77.00   -9.00   3.00 100.00 200.00  216.00       
 78.00   -9.00   1.00 100.00  37.00   57.00       
 79.00   -9.00  -1.00 100.00   9.00   29.00       
 80.00   -9.00  -3.00 100.00 115.00  135.00       
 81.00   -9.00  -5.00 100.00  87.00  107.00       
 82.00   -9.00  -7.00 100.00 222.00  227.00       
 83.00   -9.00  -9.00 100.00 211.00  227.00       
 84.00   -7.00  -9.00 100.00 214.00  227.00       
 85.00   -5.00  -9.00 100.00 196.00  207.00       
 86.00   -3.00  -9.00 100.00 151.00  166.00       
 87.00   -1.00  -9.00 100.00 136.00  149.00       
 88.00    1.00  -9.00 100.00 114.00  134.00       
 89.00    3.00  -9.00 100.00 132.00  151.00       
 90.00    5.00  -9.00 100.00 130.00  137.00       
 91.00    7.00  -9.00 100.00  53.00   67.00       
 92.00    9.00  -9.00 100.00 101.00  110.00       
 93.00    9.00  -7.00 100.00 202.00  214.00       
 94.00    9.00  -5.00 100.00 127.00  146.00       
 95.00    9.00  -3.00 100.00 168.00  177.00       
 96.00    9.00  -1.00 100.00 213.00  222.00       
 97.00   11.00   1.00  81.00  15.00   28.00       
 98.00   11.00   3.00  81.00 187.00  207.00       
 99.00   11.00   5.00  81.00 168.00  187.00       
100.00   11.00   7.00  81.00 164.00  175.00       
101.00   11.00   9.00  81.00 172.00  178.00       
102.00   11.00  11.00  81.00  24.00   33.00       
103.00    9.00  11.00  81.00  88.00  107.00       
104.00    7.00  11.00  81.00  28.00   33.00       
105.00    5.00  11.00  81.00 208.00  219.00       
106.00    3.00  11.00  81.00  43.00   56.00       
107.00    1.00  11.00  81.00 171.00  177.00       
108.00   -1.00  11.00  81.00 160.00  167.00       
109.00   -3.00  11.00  81.00 188.00  193.00       
110.00   -5.00  11.00  81.00 195.00  211.00       
111.00   -7.00  11.00  81.00 109.00  124.00       
112.00   -9.00  11.00  81.00  22.00   29.00       
113.00  -11.00  11.00  81.00   9.00   26.00       
114.00  -11.00   9.00  81.00  25.00   38.00       
115.00  -11.00   7.00  81.00  31.00   47.00       
116.00  -11.00   5.00  81.00  94.00  104.00       
117.00  -11.00   3.00  81.00 115.00  132.00       
118.00  -11.00   1.00  81.00  82.00  100.00       
119.00  -11.00  -1.00  81.00 218.00  227.00       
120.00  -11.00  -3.00  81.00 165.00  185.00       
121.00  -11.00  -5.00  81.00  96.00  110.00       
122.00  -11.00  -7.00  81.00 116.00  131.00       
123.00  -11.00  -9.00  81.00  48.00   56.00       
124.00  -11.00 -11.00  81.00 193.00  212.00       
125.00   -9.00 -11.00  81.00  89.00  102.00       
126.00   -7.00 -11.00  81.00 154.00  170.00       
127.00   -5.00 -11.00  81.00  54.00   60.00       
128.00   -3.00 -11.00  81.00 117.00  131.00       
129.00   -1.00 -11.00  81.00  22.00   33.00       
130.00    1.00 -11.00  81.00  65.00   85.00       
131.00    3.00 -11.00  81.00 122.00  128.00       
132.00    5.00 -11.00  81.00  23.00   30.00       
133.00    7.00 -11.00  81.00  48.00   65.00       
134.00    9.00 -11.00  81.00 194.00  214.00       
135.00   11.00 -11.00  81.00 186.00  201.00       
136.00   11.00  -9.00  81.00 121.00  130.00       
137.00   11.00  -7.00  81.00 161.00  169.00       
138.00   11.00  -5.00  81.00 173.00  187.00       
139.00   11.00  -3.00  81.00  81.00   97.00       
140.00   11.00  -1.00  81.00 208.00  218.00       
141.00   13.00   1.00  69.00  70.00   87.00       
142.00   13.00   3.00  69.00 101.00  113.00       
143.00   13.00   5.00  69.00  97.00  117.00       
144.00   13.00   7.00  69.00 164.00  181.00       
145.00   13.00   9.00  69.00  65.00   78.00       
146.00   13.00  11.00  69.00 137.00  156.00       
147.00   13.00  13.00  69.00 157.00  165.00       
148.00   11.00  13.00  69.00 192.00  198.00       
149.00    9.00  13.00  69.00 165.00  170.00       
150.00    7.00  13.00  69.00 175.00  188.00       
151.00    5.00  13.00  69.00  66.00   77.00       
152.00    3.00  13.00  69.00 150.00  156.00       
153.00    1.00  13.00  69.00 203.00  211.00       
154.00   -1.00  13.00  69.00 111.00  119.00       
155.00   -3.00  13.00  69.00  97.00  109.00       
156.00   -5.00  13.00  69.00 161.00  176.00       
157.00   -7.00  13.00  69.00  67.00   80.00       
158.00   -9.00  13.00  69.00  80.00   95.00       
159.00  -11.00  13.00  69.00 141.00  152.00       
160.00  -13.00  13.00  69.00 147.00  161.00       
161.00  -13.00  11.00  69.00  63.00   75.00       
162.00  -13.00   9.00  69.00 110.00  128.00       
163.00  -13.00   7.00  69.00 141.00  147.00       
164.00  -13.00   5.00  69.00  19.00   34.00       
165.00  -13.00   3.00  69.00 206.00  218.00       
166.00  -13.00   1.00  69.00 200.00  215.00       
167.00  -13.00  -1.00  69.00  31.00   46.00       
168.00  -13.00  -3.00  69.00  30.00   44.00       
169.00  -13.00  -5.00  69.00 129.00  145.00       
170.00  -13.00  -7.00  69.00  93.00   98.00       
171.00  -13.00  -9.00  69.00 144.00  153.00       
172.00  -13.00 -11.00  69.00  85.00   94.00       
173.00  -13.00 -13.00  69.00 197.00  206.00       
174.00  -11.00 -13.00  69.00 128.00  135.00       
175.00   -9.00 -13.00  69.00 154.00  173.00       
176.00   -7.00 -13.00  69.00 154.00  173.00       
177.00   -5.00 -13.00  69.00  16.00   31.00       
178.00   -3.00 -13.00  69.00 136.00  154.00       
179.00   -1.00 -13.00  69.00  86.00  104.00       
180.00    1.00 -13.00  69.00   2.00   21.00       
181.00    3.00 -13.00  69.00 159.00  173.00       
182.00    5.00 -13.00  69.00  27.00   37.00       
183.00    7.00 -13.00  69.00  15.00   34.00       
184.00    9.00 -13.00  69.00  95.00  113.00       
185.00   11.00 -13.00  69.00 175.00  182.00       
186.00   13.00 -13.00  69.00 148.00  155.00       
187.00   13.00 -11.00  69.00 119.00  124.00       
188.00   13.00  -9.00  69.00 195.00  204.00       
189.00   13.00  -7.00  69.00 163.00  169.00       
190.00   13.00  -5.00  69.00 196.00  216.00       
191.00   13.00  -3.00  69.00 114.00  125.00       
192.00   13.00  -1.00  69.00  14.00   24.00       
193.00   15.00   1.00  60.00  44.00   50.00       
194.00   15.00   3.00  60.00  26.00   40.00       
195.00   15.00   5.00  60.00  92.00  106.00       
196.00   15.00   7.00  60.00  27.00   35.00       
197.00   15.00   9.00  60.00 186.00  202.00       
198.00   15.00  11.00  60.00 169.00  189.00       
199.00   15.00  13.00  60.00 101.00  108.00       
200.00   15.00  15.00  60.00 159.00  176.00       
201.00   13.00  15.00  60.00 201.00  211.00       
202.00   11.00  15.00  60.00 172.00  181.00       
203.00    9.00  15.00  60.00 153.00  167.00       
204.00    7.00  15.00  60.00 109.00  128.00       
205.00    5.00  15.00  60.00  69.00   75.00       
206.00    3.00  15.00  60.00  73.00   79.00       
207.00    1.00  15.00  60.00  83.00   97.00       
208.00   -1.00  15.00  60.00  41.00   56.00       
209.00   -3.00  15.00  60.00 102.00  119.00       
210.00   -5.00  15.00  60.00  64.00   74.00       
211.00   -7.00  15.00  60.00  51.00   62.00       
212.00   -9.00  15.00  60.00 166.00  176.00       
213.00  -11.00  15.00  60.00  23.00   43.00       
214.00  -13.00  15.00  60.00 115.00  135.00       
215.00  -15.00  15.00  60.00  64.00   70.00       
216.00  -15.00  13.00  60.00 164.00  170.00       
217.00  -15.00  11.00  60.00 210.00  218.00       
218.00  -15.00   9.00  60.00 117.00  137.00       
219.00  -15.00   7.00  60.00  38.00   54.00       
220.00  -15.00   5.00  60.00 112.00  131.00       
221.00  -15.00   3.00  60.00   4.00   24.00       
222.00  -15.00   1.00  60.00  31.00   49.00       
223.00  -15.00  -1.00  60.00 106.00  119.00       
224.00  -15.00  -3.00  60.00 101.00  109.00       
225.00  -15.00  -5.00  60.00 107.00  114.00       
226.00  -15.00  -7.00  60.00 191.00  198.00       
227.00  -15.00  -9.00  60.00 114.00  126.00       
228.00  -15.00 -11.00  60.00 130.00  143.00       
229.00  -15.00 -13.00  60.00  42.00   51.00       
230.00  -15.00 -15.00  60.00 113.00  132.00       
231.00  -13.00 -15.00  60.00  57.00   72.00       
232.00  -11.00 -15.00  60.00 136.00  149.00       
233.00   -9.00 -15.00  60.00  51.00   71.00       
234.00   -7.00 -15.00  60.00  42.00   49.00       
235.00   -5.00 -15.00  60.00 210.00  222.00       
236.00   -3.00 -15.00  60.00  67.00   77.00       
237.00   -1.00 -15.00  60.00  98.00  105.00       
238.00    1.00 -15.00  60.00 197.00  212.00       
239.00    3.00 -15.00  60.00 142.00  158.00       
240.00    5.00 -15.00  60.00 129.00  142.00       
241.00    7.00 -15.00  60.00 196.00  213.00       
242.00    9.00 -15.00  60.00 200.00  215.00       
243.00   11.00 -15.00  60.00  64.00   82.00       
244.00   13.00 -15.00  60.00  62.00   70.00       
245.00   15.00 -15.00  60.00 143.00  152.00       
246.00   15.00 -13.00  60.00 182.00  194.00       
247.00   15.00 -11.00  60.00 195.00  208.00       
248.00   15.00  -9.00  60.00  63.00   80.00       
249.00   15.00  -7.00  60.00 143.00  151.00       
250.00   15.00  -5.00  60.00 210.00  223.00       
251.00   15.00  -3.00  60.00  96.00  111.00       
252.00   15.00  -1.00  60.00  37.00   54.00       
Node - number of items - h - w for each item
    0   0
    1   1   11    9
    2   2   11    5   22    3
    3   2   36    3   19    3
    4   2    8   14    9    4
    5   2   18    8   32    4
    6   1    8   13
    7   1   17    7
    8   1   16    7
    9   2   19    7   24    3
   10   2   11    4   34    3
   11   1    6   12
   12   1   30    3
   13   1   12    8
   14   1   29    4
   15   2    7   13    6   13
   16   2    7   13    8    4
   17   1   13    7
   18   2   15    5   19    2
   19   2   26    2   21    2
   20   2   34    4   32    2
   21   1   22    4
   22   2   11    6   31    2
   23   2    5   14   28    3
   24   1   17    5
   25   1   17    7
   26   1    9    9
   27   2    6   13   15    6
   28   1    6   17
   29   2   32    4   29    2
   30   2    7   16   16    4
   31   1    6   15
   32   2    4   14    8    6
   33   2   10    6   27    2
   34   1    7   16
   35   2    8    7   22    3
   36   2    4   12    7    8
   37   2    7   10   19    3
   38   1    7   12
   39   1   19    3
   40   1    5    9
   41   2   13    8   23    3
   42   2   17   10   18    5
   43   1    6   16
   44   1   10    8
   45   1    8   14
   46   1   20    3
   47   2   30    3   24    3
   48   1   15    4
   49   1   19    8
   50   1   11    6
   51   2   13    7   34    2
   52   2    5   15   32    2
   53   2    4   11   10   10
   54   1   12    8
   55   2   17    5   36    3
   56   2   14   10   17    3
   57   1    7   10
   58   2    6    9   24    3
   59   2    5   18   18    4
   60   1    6   15
   61   1    9    9
   62   2    8   15   16    7
   63   1    5   13
   64   1   22    2
   65   1    8    5
   66   1    6    9
   67   1   14    8
   68   2   24    3   24    2
   69   2    8   17   26    3
   70   2    6   10   27    3
   71   2    8   13   12    7
   72   2   27    2   26    2
   73   2   18    8   10    8
   74   2    5   11    5    8
   75   2   10    9   11    7
   76   2   30    2   25    2
   77   1   28    3
   78   1    5   15
   79   1   23    2
   80   2    5   17    5   15
   81   1   17    9
   82   1    7    9
   83   2    4   16    5   15
   84   2    7   15   11    9
   85   1   18    6
   86   1   15    7
   87   1   19    7
   88   1   25    2
   89   1    4   13
   90   1   27    3
   91   2   11    9   31    4
   92   2    5   18    7   17
   93   2   17    9   21    3
   94   2    5   11   10    5
   95   1   16    6
   96   2    8    6   20    2
   97   1   10    9
   98   2    7   11   21    4
   99   1    7   15
  100   2    5   16   11    6
  101   2   13    7   36    4
  102   1    5   17
  103   1   25    2
  104   2   19    7   12    4
  105   1   22    4
  106   2   17    8   27    3
  107   1   18    3
  108   2    7   16   20    3
  109   1   11    8
  110   2   25    4   20    2
  111   1    4   12
  112   2    7   13   26    3
  113   2    8   10   19    5
  114   1    6   12
  115   2    7    9   10    6
  116   2   19    4   18    4
  117   1   15    4
  118   2   16   10   11    8
  119   2    5   16   15    6
  120   1    6   10
  121   1   14    6
  122   1   21    3
  123   1   23    2
  124   1   11    9
  125   2   16    4   35    2
  126   2    9    7   13    6
  127   2   17    9   29    2
  128   1   19    2
  129   2    5   11   11    8
  130   2   34    2   22    2
  131   1   25    4
  132   1   21    3
  133   1    5   11
  134   2   23    4   17    3
  135   1   11    8
  136   1    7    9
  137   1   15   10
  138   1   11    4
  139   1   33    3
  140   1    4    9
  141   1    5   11
  142   2    5   13   22    3
  143   1   20    5
  144   2   17    6   19    3
  145   1   31    3
  146   1   15    6
  147   1   13   10
  148   1   24    3
  149   2   14    5   21    3
  150   2    6   17   16    7
  151   2    7   17   26    2
  152   1    5   17
  153   1   13    7
  154   1   24    3
  155   1   18    5
  156   2    5   13   16    6
  157   2   26    3   31    2
  158   2   24    4   32    2
  159   1    7   16
  160   2    5   16    6   10
  161   1   15    5
  162   1   26    4
  163   2   10    8   14    6
  164   2   19    7   34    3
  165   1   15    5
  166   2   26    4   24    3
  167   2    5   12   18    5
  168   1   14    9
  169   1   17    6
  170   1   15   10
  171   1    8   14
  172   2    5   11   23    3
  173   2   30    4   25    3
  174   1    8   15
  175   2    6   10   26    2
  176   2    8   14    7   11
  177   1   16    9
  178   2    7   13   19    5
  179   2    7   14   32    3
  180   1    7   11
  181   1    6   12
  182   1   17    4
  183   2    8   16    5    9
  184   2    7   10   14    5
  185   2   17    9   35    3
  186   1    5    8
  187   1    5   13
  188   2   17    7   34    2
  189   1   27    3
  190   2   19    8   11    5
  191   2    5   16   36    2
  192   1    6   11
  193   1   11   10
  194   2   15    9   24    3
  195   2   20    5   35    3
  196   1   32    3
  197   2    8   15   19    4
  198   1   26    3
  199   1    4   12
  200   1    7    9
  201   1   25    3
  202   1   25    2
  203   2    5   12   23    2
  204   2   16    6   23    2
  205   1    8    9
  206   2   12    5   28    4
  207   1    9    6
  208   1    7   14
  209   2    5   15   20    7
  210   1    8   16
  211   1   20    9
  212   1   20    3
  213   1    6    9
  214   2   18    9   19    7
  215   1    6   15
  216   1   19    9
  217   1   23    3
  218   1    5   15
  219   2    6   18   13    9
  220   1    6   15
  221   2    6   16   19    6
  222   1   18    9
  223   1   14    8
  224   2    8   10   25    2
  225   1   34    2
  226   1    8   13
  227   1   21    3
  228   1   11    7
  229   2   13    9   21    3
  230   2    4   15   36    3
  231   2    4   18    4    8
  232   2    7   16   35    4
  233   2   18    5   25    3
  234   1   19    2
  235   2    7   17   20    2
  236   1   24    3
  237   2   29    2   20    2
  238   1    9    7
  239   1   19    2
  240   1   10    5
  241   2    5   10   25    2
  242   1   19    7
  243   2    5   18   27    4
  244   1    5   12
  245   2    5   10   15    8
  246   1   29    3
  247   1   11    9
  248   1    6   15
  249   1   26    3
  250   2   34    3   20    2
  251   1    7   14
  252   1   32    4
  